{"OBJ_VAL": 539, "status": "optimal", "Name": "scp410", "time": "N/A", "X": [1, 2, 3, 4, 5, 6, 7, 8, 9, 10, 13, 14, 15, 16, 17, 18, 21, 22, 24, 25, 27, 28, 29, 34, 39, 41, 42, 46, 47, 48, 49, 50, 54, 55, 56, 57, 58, 59, 62, 67, 68, 70, 76, 83, 84, 85, 87, 95, 106, 107, 109, 113, 116, 118, 122, 141, 144, 152, 154, 183, 190, 210, 234, 254, 256, 299, 479], "Pi": [1.0, -0.0, -0.0, 1.0, 1.0, -0.0, 8.0, -0.0, 6.0, 1.0, -0.0, -0.0, -0.0, 1.0, 1.0, -0.0, -0.0, -0.0, -0.0, 2.0, -0.0, 7.0, -0.0, 6.0, -0.0, 0.0, -0.0, 6.0, 1.0, 3.0, -0.0, -0.0, 11.0, 3.0, 8.0, 8.0, -0.0, 4.0, 6.0, -0.0, -0.0, 3.0, 1.0, 0.0, 6.0, 12.0, 2.0, 6.0, -0.0, 2.0, 2.0, -0.0, 11.0, 2.0, -0.0, 12.0, 5.0, -0.0, -0.0, 9.0, -0.0, 5.5, -0.0, -0.0, 1.0, -0.0, 9.5, 14.0, 2.0, 2.5, -0.0, -0.0, 3.0, 22.0, -0.0, 1.0, -0.0, -0.0, 16.0, 2.0, -0.0, 1.0, -0.0, 3.0, 1.0, -0.0, 18.0, -0.0, 1.0, 12.0, 3.0, -0.0, 22.0, -0.0, -0.0, 10.0, 6.0, -0.0, -0.0, -0.0, 5.0, -0.0, 2.0, 0.0, -0.0, -0.0, -0.0, 1.0, -0.0, 8.0, 1.0, -0.0, 4.0, -0.0, 4.0, -0.0, -0.0, -0.0, -0.0, -0.0, -0.0, -0.0, 7.0, 0.5, 6.0, -0.0, -0.0, -0.0, 0.0, -0.0, -0.0, 1.0, 3.0, -0.0, 0.0, -0.0, 14.0, 19.0, -0.0, 10.0, -0.0, -0.0, -0.0, -0.0, 1.0, -0.0, 1.0, -0.0, -0.0, -0.0, -0.0, 14.0, -0.0, 5.0, -0.0, 2.0, -0.0, -0.0, 6.0, -0.0, 1.0, -0.0, -0.0, -0.0, -0.0, -0.0, 25.0, -0.0, 2.0, -0.0, 9.0, 0.0, -0.0, 2.0, -0.0, -0.0, -0.0, -0.0, -0.0, -0.0, 1.0, 9.0, -0.0, -0.0, 4.0, 7.0, 5.5, -0.0, -0.0, -0.0, 17.5, -0.0, -0.0, -0.0, -0.0, -0.0, -0.0, -0.0, 7.0, -0.0], "Dj": [0.0, 0.0, 0.0, 0.0, 0.0, 0.0, 0.0, 0.0, 0.0, 0.0, 0.0, 0.0, 0.0, 0.0, 0.0, 0.0, 0.0, 0.0, 0.0, 2.0, 0.0, 0.0, -1.0, 2.0, 0.0, 0.0, 0.0, 0.0, 0.0, 0.0, 3.0, 0.0, 3.0, 3.0, 0.0, 2.0, 0.0, 3.0, 3.0, 0.0, 0.0, 0.0, 0.0, 3.0, 0.0, 2.0, 0.0, 0.0, 0.0, 0.0, 0.0, 5.0, 5.0, 3.0, 0.0, 0.0, 0.0, 0.0, 0.0, 0.0, 0.0, 5.0, 0.0, 2.0, 5.0, 6.0, 7.0, 0.0, 0.0, 0.0, 0.0, 6.0, 5.0, 6.0, 0.0, 5.0, 0.0, 4.0, 7.0, 7.0, 7.0, 0.0, 0.0, 0.0, 0.0, 0.0, 6.0, 0.0, 8.0, 9.0, 2.0, 4.0, 2.0, 8.0, 9.0, 0.0, 0.0, 0.0, 7.0, 10.0, 7.0, 8.0, 0.0, 2.0, 10.0, 10.0, 0.0, 0.0, 10.0, 0.0, 0.0, 9.0, 3.0, 0.0, 10.0, 11.0, 0.0, 4.0, 0.0, 11.0, 6.0, 5.0, 0.0, 3.0, 9.0, 10.0, 12.0, 12.0, 2.0, 7.0, 13.0, 5.0, 10.0, 7.0, 12.5, 13.0, 12.0, 7.0, 7.0, 1.0, 6.0, 0.0, 11.0, 9.0, 0.0, 14.0, 7.0, 12.0, 5.0, 4.0, 15.0, 7.0, -2.5, 15.0, 0.0, 14.0, 14.0, 15.0, 7.0, 16.0, 15.0, 5.0, 0.0, 5.0, 2.0, 16.0, 9.0, 6.0, 4.0, 14.0, 16.0, 14.0, 13.0, 14.0, 16.0, 17.0, 16.0, 0.0, 17.0, 17.0, 17.0, 17.0, 6.0, 0.0, 17.0, 6.0, 17.0, 4.0, 7.0, 0.0, 0.0, 18.0, 0.0, 10.0, 16.0, 13.0, 9.0, 18.0, 7.5, 19.0, 17.0, 16.0, 9.0, 13.0, 17.0, 6.0, 11.0, 8.0, 19.0, 17.0, 0.0, 12.0, 18.0, 12.0, 15.0, 10.0, 15.0, 18.0, 18.0, 21.0, 6.0, 19.0, 20.0, 17.0, 21.5, 20.0, 12.0, 21.0, 22.0, 16.0, 22.0, 10.0, 22.0, 22.0, 0.0, 17.5, 13.0, 4.0, 6.0, 18.5, 23.0, 18.0, 23.0, 17.0, 24.0, 14.5, 0.0, 0.0, 0.0, 18.0, 14.5, 13.0, 19.0, 2.0, 0.0, 17.5, 0.0, 13.0, 1.5, 20.0, 21.0, 13.0, 0.0, 6.5, 26.0, 19.0, 10.0, 17.0, 24.0, 17.5, 0.0, 7.0, 0.0, 0.0, 0.0, 20.0, 0.0, 25.0, 11.0, 24.0, 27.0, 21.0, 25.5, 11.0, 21.0, 21.0, 6.0, 28.0, 4.0, 17.0, 22.0, 16.5, 25.5, 29.0, 28.0, 29.0, 24.0, 15.0, 12.0, -1.0, 30.0, 19.0, 28.0, 18.0, 30.0, 27.5, 27.0, 28.5, 23.0, 28.0, 29.0, 22.0, 31.0, 31.0, 25.5, 11.5, 32.0, 32.0, 32.0, 26.0, 32.0, 26.0, 31.0, 28.0, 15.0, 33.0, 30.0, 29.0, 28.0, 33.0, 22.0, 30.0, 33.0, 23.0, 22.0, 16.5, 10.5, 34.0, 33.0, 30.0, 18.0, 34.0, 33.0, 34.0, 27.0, 21.0, 32.0, 35.0, 20.5, 7.0, 26.0, 35.0, 18.0, 21.0, 31.0, 35.0, 29.0, 36.0, 36.0, 21.0, 33.0, 17.0, 35.0, 35.0, 21.0, 23.5, 36.0, 22.0, 30.0, 34.0, 20.0, 30.0, 10.0, 21.0, 33.0, 37.0, 19.0, 31.0, 34.0, 20.0, 6.0, 38.0, 27.0, 22.0, 29.0, 39.0, 24.0, 39.0, 12.0, 14.0, 23.0, 20.0, 39.0, 29.0, 38.0, 33.5, 35.0, 24.0, 36.0, 31.0, 40.0, 39.0, 40.0, 28.0, 40.0, 40.0, 24.0, 40.0, 33.0, 33.0, 29.0, 38.0, 41.0, 30.0, 40.5, 38.0, 31.0, 39.0, 27.0, 27.5, 39.0, 24.0, 29.0, 10.5, 17.0, 39.0, 2.0, 40.0, 35.0, 20.0, 26.0, 42.0, 42.0, 22.5, 7.0, 15.0, 40.0, 27.0, 33.0, 25.0, 43.0, 39.0, 43.0, 43.0, 29.0, 40.0, 43.0, 30.0, 37.0, 25.0, 43.0, 44.0, 44.0, 0.0, 11.0, 32.0, 19.0, 39.0, 42.0, 43.0, 43.0, 39.0, 44.0, 32.0, 43.0, 45.0, 40.0, 36.5, 37.0, 44.0, 9.0, 34.0, 24.0, 42.0, 39.0, 42.0, 45.0, 47.0, 47.0, 0.0, 38.0, 45.0, 47.0, 44.0, 20.0, 40.0, 44.0, 48.0, 42.0, 42.0, 44.0, 41.0, 33.0, 28.5, 48.0, 34.0, 43.0, 49.0, 41.0, 33.0, 50.0, 24.0, 49.0, 48.0, 46.0, 45.0, 30.0, 34.0, 43.0, 49.0, 34.0, 34.0, 47.5, 39.0, 35.5, 51.0, 51.0, 11.0, 49.0, 45.0, 38.5, 32.5, 35.0, 36.0, 43.0, 45.0, 33.0, 52.0, 29.0, 33.5, 49.0, 46.0, 36.5, 50.0, 39.0, 46.0, 54.0, 49.0, 52.0, 38.0, 48.0, 42.0, 39.0, 51.0, 49.0, 53.0, 55.0, 54.0, 45.0, 50.0, 54.0, 36.0, 49.0, 56.0, 15.0, 43.0, 33.0, 50.0, 45.0, 56.0, 45.5, 33.5, 45.0, 47.0, 53.0, 57.0, 39.0, 48.0, 57.0, 33.5, 58.0, 36.0, 50.0, 59.0, 59.0, 51.0, 48.5, 59.0, 45.0, 25.5, 27.0, 52.0, 29.0, 60.0, 57.0, 58.0, 56.0, 59.0, 59.0, 60.0, 52.0, 53.0, 51.0, 45.0, 31.0, 55.0, 53.0, 55.5, 54.0, 42.0, 61.0, 27.0, 53.0, 60.0, 46.5, 42.0, 43.5, 53.0, 44.0, 55.0, 51.0, 55.0, 60.0, 57.0, 53.0, 58.0, 60.0, 62.0, 59.0, 56.0, 27.0, 53.0, 38.0, 60.0, 61.0, 57.0, 60.0, 49.0, 57.0, 37.0, 58.0, 58.0, 62.0, 63.0, 51.5, 30.0, 54.0, 39.0, 45.5, 36.5, 64.0, 62.0, 56.5, 46.0, 59.5, 63.0, 55.0, 59.0, 57.0, 64.0, 64.0, 55.0, 61.0, 31.0, 45.5, 57.0, 35.0, 57.0, 65.0, 46.0, 62.0, 51.5, 65.0, 61.5, 66.0, 65.0, 60.0, 57.0, 66.0, 7.0, 60.0, 61.0, 40.0, 66.5, 64.5, 33.5, 55.0, 63.0, 47.0, 59.5, 66.0, 46.0, 67.0, 60.0, 53.0, 66.0, 56.0, 66.0, 67.0, 48.0, 54.0, 46.0, 65.0, 66.0, 62.0, 45.0, 53.0, 43.5, 63.0, 67.0, 62.5, 64.0, 69.0, 68.0, 69.0, 63.0, 69.0, 51.0, 69.0, 37.0, 65.0, 49.0, 58.0, 64.0, 65.0, 68.0, 57.0, 70.0, 61.5, 71.0, 71.0, 72.0, 69.0, 58.0, 54.5, 65.0, 65.0, 49.0, 51.0, 71.0, 52.0, 59.0, 63.0, 58.5, 72.0, 73.0, 35.0, 59.0, 72.0, 59.5, 66.0, 74.0, 0.0, 48.0, 56.0, 54.0, 72.0, 60.0, 72.0, 66.0, 67.0, 69.5, 57.0, 60.5, 75.0, 40.5, 63.0, 46.0, 75.0, 72.0, 56.0, 69.0, 72.0, 72.0, 70.0, 76.0, 69.0, 57.0, 71.0, 76.0, 70.0, 75.0, 76.0, 70.5, 64.0, 50.0, 76.0, 58.0, 64.0, 77.0, 76.0, 74.5, 77.0, 60.0, 75.0, 72.5, 77.0, 78.0, 61.0, 57.5, 64.0, 63.0, 78.0, 72.0, 77.0, 69.0, 79.0, 78.0, 76.0, 66.0, 61.0, 74.0, 77.0, 70.0, 40.0, 67.0, 64.0, 78.0, 75.0, 73.5, 79.0, 67.0, 56.0, 74.0, 66.0, 70.0, 81.0, 81.0, 66.0, 62.0, 51.0, 70.0, 71.0, 81.0, 78.5, 76.5, 82.0, 81.0, 71.0, 75.5, 64.0, 65.5, 78.0, 79.0, 55.5, 59.0, 77.0, 69.5, 81.0, 80.0, 62.0, 78.5, 60.0, 82.0, 83.0, 75.0, 84.0, 83.0, 57.0, 83.0, 63.0, 61.0, 72.0, 73.0, 58.0, 84.0, 62.0, 77.0, 70.0, 64.0, 54.0, 66.0, 74.0, 75.0, 76.0, 72.0, 84.0, 84.0, 83.0, 79.0, 64.5, 81.0, 73.0, 83.0, 71.0, 84.0, 71.0, 81.0, 52.0, 88.0, 82.0, 82.0, 88.0, 69.0, 86.0, 24.0, 55.0, 73.0, 75.0, 49.0, 77.5, 89.0, 64.0, 69.0, 78.0, 84.0, 88.0, 81.5, 82.0, 88.0, 87.5, 90.0, 87.0, 89.0, 86.0, 85.0, 86.0, 91.0, 90.0, 79.0, 69.0, 92.0, 86.5, 83.0, 82.5, 92.0, 90.0, 91.0, 92.0, 92.0, 75.5, 84.0, 90.0, 78.0, 93.0, 92.0, 83.0, 93.0, 88.0, 87.0, 93.0, 69.0, 65.0, 58.0, 85.0, 74.0, 86.0, 94.0, 81.0, 81.5, 92.0, 91.0, 82.5, 70.0, 93.0, 86.0, 93.0, 78.0, 95.0, 81.0, 86.5, 74.0, 69.0, 69.0, 91.0, 84.0, 96.0, 96.0, 95.0, 77.5, 94.0, 76.0, 90.0, 82.0, 95.0, 84.0, 88.0, 97.0, 95.0, 84.0, 97.0, 78.0, 94.5, 93.0, 75.0, 91.0, 95.0, 97.0, 93.0, 98.0, 60.5, 96.0, 81.0, 99.0, 81.0, 90.0, 75.0, 76.0, 84.0, 94.0, 85.0, 82.0, 96.0, 96.5, 98.0, 99.0, 87.0, 93.0, 97.0, 91.0], "slack": [0.0, -2.0, -2.0, 0.0, 0.0, -2.0, 0.0, -1.0, 0.0, 0.0, -2.0, -1.0, -1.0, 0.0, 0.0, -1.0, -1.0, -0.5, -1.0, 0.0, -0.5, 0.0, -1.0, 0.0, -1.0, 0.0, -1.0, 0.0, 0.0, 0.0, 0.0, -2.0, 0.0, 0.0, 0.0, 0.0, -1.0, 0.0, 0.0, 0.0, -1.0, 0.0, 0.0, 0.0, 0.0, 0.0, 0.0, 0.0, -1.0, 0.0, 0.0, 0.0, 0.0, 0.0, 0.0, 0.0, 0.0, -0.5, 0.0, 0.0, 0.0, 0.0, -1.0, 0.0, 0.0, -3.0, 0.0, 0.0, 0.0, 0.0, -0.5, -1.0, 0.0, 0.0, 0.0, 0.0, -0.5, -1.0, 0.0, 0.0, -1.0, 0.0, 0.0, 0.0, 0.0, -2.0, 0.0, -1.0, 0.0, 0.0, 0.0, 0.0, 0.0, -2.0, -2.0, 0.0, 0.0, -1.0, -1.0, -1.0, 0.0, -2.5, 0.0, 0.0, -2.5, 0.0, -0.5, 0.0, 0.0, 0.0, 0.0, -3.5, 0.0, 0.0, 0.0, -1.0, 0.0, -2.0, -2.0, 0.0, 0.0, -1.0, 0.0, 0.0, 0.0, -2.0, 0.0, -1.0, 0.0, 0.0, 0.0, 0.0, 0.0, 0.0, 0.0, -1.0, 0.0, 0.0, 0.0, 0.0, -1.5, -2.0, 0.0, -3.0, 0.0, 0.0, 0.0, 0.0, -1.0, -1.0, -2.0, 0.0, -1.0, 0.0, 0.0, 0.0, -1.0, -0.5, 0.0, -1.0, 0.0, -1.0, 0.0, -1.0, -1.0, -1.5, 0.0, -1.0, 0.0, -1.5, 0.0, 0.0, -1.0, 0.0, 0.0, 0.0, -2.0, 0.0, 0.0, 0.0, 0.0, 0.0, 0.0, -2.0, 0.0, 0.0, 0.0, 0.0, 0.0, -1.0, 0.0, -1.0, 0.0, -1.0, 0.0, -0.5, 0.0, 0.0, 0.0, 0.0], "density": 0.019525, "feasible": true, "X_len": 67, "mode": "AAD", "factor": 0, "obj_val": 513.5, "x": [0.0, 1.0, 1.0, 1.0, 1.0, 1.0, 1.0, 1.0, 1.0, 1.0, 1.0, 0.0, 0.0, 1.0, 1.0, 1.0, 1.0, 0.5, 1.0, 0.0, 0.0, 1.0, 1.0, 0.0, 1.0, 1.0, 0.0, 1.0, 1.0, 1.0, 0.0, 0.0, 0.0, 0.0, 1.0, 0.0, 0.0, 0.0, 0.0, 1.0, 0.0, 1.0, 1.0, 0.0, 0.0, 0.0, 1.0, 1.0, 1.0, 0.5, 1.0, 0.0, 0.0, 0.0, 1.0, 1.0, 1.0, 0.5, 1.0, 1.0, 0.0, 0.0, 1.0, 0.0, 0.0, 0.0, 0.0, 1.0, 1.0, 0.0, 1.0, 0.0, 0.0, 0.0, 0.0, 0.0, 1.0, 0.0, 0.0, 0.0, 0.0, 0.0, 0.0, 1.0, 1.0, 1.0, 0.0, 1.0, 0.0, 0.0, 0.0, 0.0, 0.0, 0.0, 0.0, 1.0, 0.0, 0.0, 0.0, 0.0, 0.0, 0.0, 0.0, 0.0, 0.0, 0.0, 1.0, 0.5, 0.0, 1.0, 0.0, 0.0, 0.0, 1.0, 0.0, 0.0, 0.5, 0.0, 1.0, 0.0, 0.0, 0.0, 1.0, 0.0, 0.0, 0.0, 0.0, 0.0, 0.0, 0.0, 0.0, 0.0, 0.0, 0.0, 0.0, 0.0, 0.0, 0.0, 0.0, 0.0, 0.0, 1.0, 0.0, 0.0, 1.0, 0.0, 0.0, 0.0, 0.0, 0.0, 0.0, 0.0, 1.0, 0.0, 0.5, 0.0, 0.0, 0.0, 0.0, 0.0, 0.0, 0.0, 0.0, 0.0, 0.0, 0.0, 0.0, 0.0, 0.0, 0.0, 0.0, 0.0, 0.0, 0.0, 0.0, 0.0, 0.0, 0.0, 0.0, 0.0, 0.0, 0.0, 0.0, 1.0, 0.0, 0.0, 0.0, 0.0, 0.0, 0.0, 1.0, 0.0, 0.0, 0.0, 0.0, 0.0, 0.0, 0.0, 0.0, 0.0, 0.0, 0.0, 0.0, 0.0, 0.0, 0.0, 0.0, 0.0, 0.0, 0.0, 1.0, 0.0, 0.0, 0.0, 0.0, 0.0, 0.0, 0.0, 0.0, 0.0, 0.0, 0.0, 0.0, 0.0, 0.0, 0.0, 0.0, 0.0, 0.0, 0.0, 0.0, 0.0, 0.0, 0.0, 1.0, 0.0, 0.0, 0.0, 0.0, 0.0, 0.0, 0.0, 0.0, 0.0, 0.0, 0.0, 0.0, 0.0, 0.0, 0.0, 0.0, 0.0, 0.0, 0.0, 1.0, 0.0, 1.0, 0.0, 0.0, 0.0, 0.0, 0.0, 0.0, 0.0, 0.0, 0.0, 0.0, 0.0, 0.0, 0.0, 0.0, 0.0, 0.0, 0.0, 0.0, 0.0, 0.0, 0.0, 0.0, 0.0, 0.0, 0.0, 0.0, 0.0, 0.0, 0.0, 0.0, 0.0, 0.0, 0.0, 0.0, 0.0, 0.0, 0.0, 0.0, 0.0, 0.0, 0.0, 0.0, 1.0, 0.0, 0.0, 0.0, 0.0, 0.0, 0.0, 0.0, 0.0, 0.0, 0.0, 0.0, 0.0, 0.0, 0.0, 0.0, 0.0, 0.0, 0.0, 0.0, 0.0, 0.0, 0.0, 0.0, 0.0, 0.0, 0.0, 0.0, 0.0, 0.0, 0.0, 0.0, 0.0, 0.0, 0.0, 0.0, 0.0, 0.0, 0.0, 0.0, 0.0, 0.0, 0.0, 0.0, 0.0, 0.0, 0.0, 0.0, 0.0, 0.0, 0.0, 0.0, 0.0, 0.0, 0.0, 0.0, 0.0, 0.0, 0.0, 0.0, 0.0, 0.0, 0.0, 0.0, 0.0, 0.0, 0.0, 0.0, 0.0, 0.0, 0.0, 0.0, 0.0, 0.0, 0.0, 0.0, 0.0, 0.0, 0.0, 0.0, 0.0, 0.0, 0.0, 0.0, 0.0, 0.0, 0.0, 0.0, 0.0, 0.0, 0.0, 0.0, 0.0, 0.0, 0.0, 0.0, 0.0, 0.0, 0.0, 0.0, 0.0, 0.0, 0.0, 0.0, 0.0, 0.0, 0.0, 0.0, 0.0, 0.0, 0.0, 0.0, 0.0, 0.0, 0.0, 0.0, 0.0, 0.0, 0.0, 0.0, 0.0, 0.0, 0.0, 0.0, 0.0, 0.0, 0.0, 0.0, 0.0, 0.0, 0.0, 0.0, 0.0, 0.0, 0.0, 0.0, 0.0, 0.0, 0.0, 0.0, 0.0, 0.0, 0.0, 0.0, 0.0, 0.0, 0.0, 0.0, 0.0, 0.0, 0.0, 0.0, 0.0, 0.0, 0.0, 0.0, 0.0, 0.0, 0.0, 0.0, 0.0, 0.0, 0.0, 0.0, 0.0, 0.0, 0.0, 0.0, 0.0, 0.0, 0.0, 0.0, 0.0, 0.0, 0.0, 0.0, 0.0, 0.0, 0.0, 0.0, 1.0, 0.0, 0.0, 0.0, 0.0, 0.0, 0.0, 0.0, 0.0, 0.0, 0.0, 0.0, 0.0, 0.0, 0.0, 0.0, 0.0, 0.0, 0.0, 0.0, 0.0, 0.0, 0.0, 0.0, 0.0, 0.0, 0.0, 0.0, 0.0, 0.0, 0.0, 0.0, 0.0, 0.0, 0.0, 0.0, 0.0, 0.0, 0.0, 0.0, 0.0, 0.0, 0.0, 0.0, 0.0, 0.0, 0.0, 0.0, 0.0, 0.0, 0.0, 0.0, 0.0, 0.0, 0.0, 0.0, 0.0, 0.0, 0.0, 0.0, 0.0, 0.0, 0.0, 0.0, 0.0, 0.0, 0.0, 0.0, 0.0, 0.0, 0.0, 0.0, 0.0, 0.0, 0.0, 0.0, 0.0, 0.0, 0.0, 0.0, 0.0, 0.0, 0.0, 0.0, 0.0, 0.0, 0.0, 0.0, 0.0, 0.0, 0.0, 0.0, 0.0, 0.0, 0.0, 0.0, 0.0, 0.0, 0.0, 0.0, 0.0, 0.0, 0.0, 0.0, 0.0, 0.0, 0.0, 0.0, 0.0, 0.0, 0.0, 0.0, 0.0, 0.0, 0.0, 0.0, 0.0, 0.0, 0.0, 0.0, 0.0, 0.0, 0.0, 0.0, 0.0, 0.0, 0.0, 0.0, 0.0, 0.0, 0.0, 0.0, 0.0, 0.0, 0.0, 0.0, 0.0, 0.0, 0.0, 0.0, 0.0, 0.0, 0.0, 0.0, 0.0, 0.0, 0.0, 0.0, 0.0, 0.0, 0.0, 0.0, 0.0, 0.0, 0.0, 0.0, 0.0, 0.0, 0.0, 0.0, 0.0, 0.0, 0.0, 0.0, 0.0, 0.0, 0.0, 0.0, 0.0, 0.0, 0.0, 0.0, 0.0, 0.0, 0.0, 0.0, 0.0, 0.0, 0.0, 0.0, 0.0, 0.0, 0.0, 0.0, 0.0, 0.0, 0.0, 0.0, 0.0, 0.0, 0.0, 0.0, 0.0, 0.0, 0.0, 0.0, 0.0, 0.0, 0.0, 0.0, 0.0, 0.0, 0.0, 0.0, 0.0, 0.0, 0.0, 0.0, 0.0, 0.0, 0.0, 0.0, 0.0, 0.0, 0.0, 0.0, 0.0, 0.0, 0.0, 0.0, 0.0, 0.0, 0.0, 0.0, 0.0, 0.0, 0.0, 0.0, 0.0, 0.0, 0.0, 0.0, 0.0, 0.0, 0.0, 0.0, 0.0, 0.0, 0.0, 0.0, 0.0, 0.0, 0.0, 0.0, 0.0, 0.0, 0.0, 0.0, 0.0, 0.0, 0.0, 0.0, 0.0, 0.0, 0.0, 0.0, 0.0, 0.0, 0.0, 0.0, 0.0, 0.0, 0.0, 0.0, 0.0, 0.0, 0.0, 0.0, 0.0, 0.0, 0.0, 0.0, 0.0, 0.0, 0.0, 0.0, 0.0, 0.0, 0.0, 0.0, 0.0, 0.0, 0.0, 0.0, 0.0, 0.0, 0.0, 0.0, 0.0, 0.0, 0.0, 0.0, 0.0, 0.0, 0.0, 0.0, 0.0, 0.0, 0.0, 0.0, 0.0, 0.0, 0.0, 0.0, 0.0, 0.0, 0.0, 0.0, 0.0, 0.0, 0.0, 0.0, 0.0, 0.0, 0.0, 0.0, 0.0, 0.0, 0.0, 0.0, 0.0, 0.0, 0.0, 0.0, 0.0, 0.0, 0.0, 0.0, 0.0, 0.0, 0.0, 0.0, 0.0, 0.0, 0.0, 0.0, 0.0, 0.0, 0.0, 0.0, 0.0, 0.0, 0.0, 0.0, 0.0, 0.0, 0.0, 0.0, 0.0, 0.0, 0.0, 0.0, 0.0, 0.0, 0.0, 0.0, 0.0, 0.0, 0.0, 0.0, 0.0, 0.0, 0.0, 0.0, 0.0, 0.0, 0.0, 0.0, 0.0, 0.0, 0.0, 0.0, 0.0, 0.0, 0.0, 0.0, 0.0, 0.0, 0.0, 0.0, 0.0, 0.0, 0.0, 0.0, 0.0, 0.0, 0.0, 0.0, 0.0, 0.0, 0.0, 0.0, 0.0, 0.0, 0.0, 0.0, 0.0, 0.0, 0.0, 0.0, 0.0, 0.0, 0.0, 0.0, 0.0, 0.0, 0.0, 0.0, 0.0, 0.0, 0.0, 0.0, 0.0, 0.0, 0.0, 0.0, 0.0, 0.0, 0.0, 0.0, 0.0, 0.0, 0.0, 0.0, 0.0, 0.0, 0.0, 0.0, 0.0, 0.0, 0.0, 0.0, 0.0, 0.0, 0.0, 0.0, 0.0, 0.0, 0.0, 0.0, 0.0, 0.0, 0.0, 0.0, 0.0, 0.0, 0.0, 0.0, 0.0, 0.0, 0.0, 0.0, 0.0, 0.0, 0.0, 0.0, 0.0, 0.0, 0.0, 0.0, 0.0, 0.0, 0.0, 0.0, 0.0, 0.0, 0.0, 0.0, 0.0, 0.0, 0.0, 0.0, 0.0, 0.0, 0.0, 0.0, 0.0, 0.0, 0.0, 0.0, 0.0, 0.0, 0.0, 0.0, 0.0, 0.0, 0.0, 0.0, 0.0, 0.0, 0.0, 0.0, 0.0, 0.0, 0.0, 0.0, 0.0, 0.0, 0.0, 0.0, 0.0, 0.0, 0.0, 0.0, 0.0, 0.0, 0.0, 0.0, 0.0, 0.0, 0.0, 0.0, 0.0, 0.0, 0.0, 0.0, 0.0, 0.0, 0.0, 0.0, 0.0]}